70
0 52 3 33 20 41 22 62 23 9 
56 17 47 30 59 26 15 63 4 55 
60 6 69 21 44 5 14 19 67 25 
42 2 57 12 18 27 8 49 45 65 
28 39 48 46 64 7 68 24 34 58 
51 35 43 40 10 31 38 32 1 54 
53 36 37 50 66 13 61 29 11 16 
